# Solution for model OBJ
# Objective value = 30
y_(0,_1) 1
y_(0,_2) 0
y_(0,_3) 1
y_(1,_0) 1
y_(2,_0) 0
y_(3,_0) 1
z_(2,_4,_0) 0
z_(4,_2,_0) 1
z_(8,_9,_0) 1
z_(9,_8,_0) 0
x_(1,_3,_1,_0) 0
x_(2,_3,_1,_0) 0
x_(3,_1,_2,_0) 0
x_(3,_1,_3,_0) 0
x_(3,_1,_10,_0) 0
x_(1,_3,_2,_0) 0
x_(2,_3,_2,_0) 0
x_(3,_2,_1,_0) 0
x_(3,_2,_3,_0) 0
x_(3,_2,_4,_0) 0
x_(3,_2,_5,_0) 0
x_(3,_2,_6,_0) 0
x_(3,_2,_10,_0) 0
x_(0,_4,_0,_0) 0
x_(2,_4,_0,_0) 0
x_(4,_0,_4,_0) 0
x_(7,_4,_0,_0) 0
x_(8,_4,_0,_0) 0
y_(3,_1) 0
x_(4,_0,_10,_0) 0
x_(0,_4,_2,_0) 1
x_(2,_4,_2,_0) 0
x_(4,_2,_1,_0) 0
x_(7,_4,_2,_0) 0
x_(8,_4,_2,_0) 0
x_(4,_2,_3,_0) 0
x_(4,_2,_4,_0) 1
x_(4,_2,_5,_0) 0
x_(4,_2,_6,_0) 0
x_(4,_2,_10,_0) 0
x_(0,_4,_7,_0) 0
x_(2,_4,_7,_0) 0
x_(4,_7,_4,_0) 0
x_(7,_4,_7,_0) 0
x_(8,_4,_7,_0) 0
x_(4,_7,_5,_0) 0
x_(4,_7,_10,_0) 0
y_(3,_2) 0
x_(0,_4,_8,_0) 0
x_(2,_4,_8,_0) 1
x_(4,_8,_4,_0) 0
x_(7,_4,_8,_0) 0
x_(8,_4,_8,_0) 0
x_(4,_8,_9,_0) 1
x_(4,_8,_10,_0) 0
x_(2,_5,_2,_0) 0
x_(5,_2,_1,_0) 0
x_(7,_5,_2,_0) 0
x_(5,_2,_3,_0) 0
x_(5,_2,_4,_0) 0
x_(5,_2,_5,_0) 0
x_(5,_2,_6,_0) 0
x_(5,_2,_10,_0) 0
x_(2,_5,_7,_0) 0
x_(5,_7,_4,_0) 0
x_(7,_5,_7,_0) 0
x_(0,_4,_10,_0) 0
x_(5,_7,_5,_0) 0
x_(5,_7,_10,_0) 0
x_(2,_6,_2,_0) 0
x_(6,_2,_1,_0) 0
x_(6,_2,_3,_0) 0
x_(6,_2,_4,_0) 0
x_(6,_2,_5,_0) 0
x_(6,_2,_6,_0) 0
x_(6,_2,_10,_0) 0
x_(1,_2,_10,_0) 0
x_(1,_3,_10,_0) 0
x_(2,_1,_10,_0) 0
x_(2,_3,_10,_0) 0
x_(2,_4,_10,_0) 0
x_(2,_5,_10,_0) 0
x_(2,_6,_10,_0) 0
x_(7,_4,_10,_0) 0
x_(7,_5,_10,_0) 0
x_(8,_4,_10,_0) 0
x_(8,_9,_10,_0) 1
x_(9,_8,_10,_0) 0
x_(9,_8,_4,_0) 0
x_(1,_2,_1,_0) 0
x_(2,_1,_2,_0) 0
x_(2,_1,_3,_0) 0
x_(8,_9,_8,_0) 0
x_(9,_8,_9,_0) 0
x_(1,_2,_3,_0) 0
x_(1,_2,_4,_0) 0
x_(1,_2,_5,_0) 0
x_(1,_2,_6,_0) 0
z_(4,_7,_0) 0
z_(7,_4,_0) 0
z_(1,_2,_0) 0
z_(2,_1,_0) 0
z_(2,_5,_0) 0
z_(5,_2,_0) 0
v_(1,_0) 0
v_(2,_0) 1
v_(3,_0) 0
v_(4,_0) 2
v_(5,_0) 0
v_(6,_0) 0
v_(7,_0) 0
v_(8,_0) 1
v_(9,_0) 1
v_(10,_0) 1
f_(0,_10,_0) 0
f_(0,_4,_0) 6
f_(4,_0,_0) 0
f_(1,_10,_0) 0
f_(2,_10,_0) 0
f_(3,_10,_0) 0
f_(4,_10,_0) 0
f_(5,_10,_0) 0
f_(6,_10,_0) 0
f_(7,_10,_0) 0
f_(8,_10,_0) 0
f_(9,_10,_0) 1
f_(1,_2,_0) 0
f_(1,_3,_0) 0
f_(2,_1,_0) 0
f_(2,_3,_0) 0
f_(2,_4,_0) 4
f_(2,_5,_0) 0
f_(2,_6,_0) 0
f_(3,_1,_0) 0
f_(3,_2,_0) 0
f_(4,_2,_0) 5
f_(4,_7,_0) 0
f_(4,_8,_0) 3
f_(5,_2,_0) 0
f_(5,_7,_0) 0
f_(6,_2,_0) 0
f_(7,_4,_0) 0
f_(7,_5,_0) 0
f_(8,_4,_0) 0
f_(8,_9,_0) 2
f_(9,_8,_0) 0
t_(0,_4,_0,_0) 0
t_(0,_4,_2,_0) 0.8
t_(0,_4,_7,_0) 0
t_(0,_4,_8,_0) 0
t_(0,_4,_10,_0) 0
t_(1,_2,_1,_0) 0
t_(1,_2,_3,_0) 0
t_(1,_2,_4,_0) 0
t_(1,_2,_5,_0) 0
t_(1,_2,_6,_0) 0
t_(1,_2,_10,_0) 0
t_(1,_3,_1,_0) 0
t_(1,_3,_2,_0) 0
t_(1,_3,_10,_0) 0
t_(2,_1,_2,_0) 0
t_(2,_1,_3,_0) 0
t_(2,_1,_10,_0) 0
t_(2,_3,_1,_0) 0
t_(2,_3,_2,_0) 0
t_(2,_3,_10,_0) 0
t_(2,_4,_0,_0) 0
t_(2,_4,_2,_0) 0
t_(2,_4,_7,_0) 0
t_(2,_4,_8,_0) 1.1959999999998455e+01
t_(2,_4,_10,_0) 0
t_(2,_5,_2,_0) 0
t_(2,_5,_7,_0) 0
t_(2,_5,_10,_0) 0
t_(2,_6,_2,_0) 0
t_(2,_6,_10,_0) 0
t_(3,_1,_2,_0) 0
t_(3,_1,_3,_0) 0
t_(3,_1,_10,_0) 0
t_(3,_2,_1,_0) 0
t_(3,_2,_3,_0) 0
t_(3,_2,_4,_0) 0
t_(3,_2,_5,_0) 0
t_(3,_2,_6,_0) 0
t_(3,_2,_10,_0) 0
t_(4,_0,_4,_0) 0
t_(4,_0,_10,_0) 0
t_(4,_2,_1,_0) 0
t_(4,_2,_3,_0) 0
t_(4,_2,_4,_0) 1.1379999999998951e+01
t_(4,_2,_5,_0) 0
t_(4,_2,_6,_0) 0
t_(4,_2,_10,_0) 0
t_(4,_7,_4,_0) 0
t_(4,_7,_5,_0) 0
t_(4,_7,_10,_0) 0
t_(4,_8,_4,_0) 0
t_(4,_8,_9,_0) 3.5450000000000045e+01
t_(4,_8,_10,_0) 0
t_(5,_2,_1,_0) 0
t_(5,_2,_3,_0) 0
t_(5,_2,_4,_0) 0
t_(5,_2,_5,_0) 0
t_(5,_2,_6,_0) 0
t_(5,_2,_10,_0) 0
t_(5,_7,_4,_0) 0
t_(5,_7,_5,_0) 0
t_(5,_7,_10,_0) 0
t_(6,_2,_1,_0) 0
t_(6,_2,_3,_0) 0
t_(6,_2,_4,_0) 0
t_(6,_2,_5,_0) 0
t_(6,_2,_6,_0) 0
t_(6,_2,_10,_0) 0
t_(7,_4,_0,_0) 0
t_(7,_4,_2,_0) 0
t_(7,_4,_7,_0) 0
t_(7,_4,_8,_0) 0
t_(7,_4,_10,_0) 0
t_(7,_5,_2,_0) 0
t_(7,_5,_7,_0) 0
t_(7,_5,_10,_0) 0
t_(8,_4,_0,_0) 0
t_(8,_4,_2,_0) 0
t_(8,_4,_7,_0) 0
t_(8,_4,_8,_0) 0
t_(8,_4,_10,_0) 0
t_(8,_9,_8,_0) 0
t_(8,_9,_10,_0) 72
t_(9,_8,_4,_0) 0
t_(9,_8,_9,_0) 0
t_(9,_8,_10,_0) 0
s_(1,_2,_0) 0
s_(2,_1,_0) 0
s_(2,_4,_0) 1.1379999999998455e+01
s_(2,_5,_0) 0
s_(4,_2,_0) 7.9999999999895088e-01
s_(4,_7,_0) 0
s_(5,_2,_0) 0
s_(7,_4,_0) 0
s_(8,_9,_0) 35.45
s_(9,_8,_0) 0
a_(1,_2,_0) 0
a_(2,_1,_0) 0
y_(1,_2) 0
a_(2,_4,_0) 0
a_(2,_5,_0) 0
a_(4,_2,_0) 10
a_(4,_7,_0) 0
a_(5,_2,_0) 0
a_(7,_4,_0) 0
a_(8,_9,_0) 35
a_(9,_8,_0) 0
w_(1,_2,_0) 0
w_(2,_1,_0) 0
w_(2,_4,_0) 0
w_(2,_5,_0) 0
w_(4,_2,_0) 0
w_(4,_7,_0) 0
w_(5,_2,_0) 0
w_(7,_4,_0) 0
w_(8,_9,_0) 0
w_(9,_8,_0) 0
y_(1,_3) 0
y_(2,_1) 0
y_(2,_3) 0
